sat
(
  (define-fun z () Bool
    true)
  (define-fun q () Bool
    false)
  (define-fun p () Bool
    true)
  (define-fun y () Bool
    true)
  (define-fun x () Bool
    true)
  (define-fun r () Bool
    false)
)